(set-info :smt-lib-version 2.6)
(set-logic QF_S)
(set-info :source |
Generated by: Murphy Berzish, Mitja Kulczynski, Federico Mora, Florin Manea, Joel Day, Dirk Nowotka, Vijay Ganesh, Zhengyang Lu
Generated on: 2020-10-01
Description: Translated from a collection of real-world regex queries, AutomataArk, collected by Loris D’Antoni and Fang Wang: https://github.com/lorisdanto/automatark
Application: Evaluate solvers on real-world regex queries
Target solver: Z3str3RE, CVC4, OSTRICH, Z3seq, Z3str3, Z3-Trau
Publications: Berzish, M., Kulczynski, M., Mora, F., Manea, F., Day, J. D., Nowotka, D., & Ganesh, V. (2021, July). An SMT solver for regular expressions and linear arithmetic over string length. In CAV 2021.
|)
(set-info :license "https://creativecommons.org/licenses/by/4.0/")
(set-info :category "industrial")
(set-info :status sat)

(declare-const X String)
(assert (not (str.in_re X (re.++ (re.opt (re.++ (re.opt (str.to_re "+")) (str.to_re "36"))) (re.opt (re.union (str.to_re " ") (str.to_re "-"))) (re.union ((_ re.loop 1 2) (re.range "0" "9")) (re.++ (str.to_re "(") ((_ re.loop 1 2) (re.range "0" "9")) (str.to_re ")"))) (re.opt (str.to_re "/")) ((_ re.loop 6 7) (re.++ (re.opt (re.union (str.to_re " ") (str.to_re "-"))) (re.range "0" "9"))) (str.to_re "\u{a}")))))
(assert (str.in_re X (re.++ (str.to_re "DA") (re.range "0" "9") (str.to_re "www.e-finder.cc") (re.* re.allchar) (str.to_re "User-Agent:\u{a}"))))
(assert (not (str.in_re X (re.++ (str.to_re "SI|Server|\u{13}") (re.+ (re.range "0" "9")) (str.to_re "informationWinInetEvilFTPOSSProxy\u{5c}home/lordofsearch\u{a}")))))
(assert (not (str.in_re X (re.++ (re.union (re.++ (re.+ (re.range "1" "9")) ((_ re.loop 0 2) (re.range "0" "9")) (str.to_re ",") (re.* (re.++ ((_ re.loop 3 3) (re.range "0" "9")) (str.to_re ","))) ((_ re.loop 3 3) (re.range "0" "9")) (re.opt (re.++ (str.to_re ".") ((_ re.loop 1 2) (re.range "0" "9"))))) (re.++ (re.+ (re.range "1" "9")) (re.* (re.range "0" "9")) (re.opt (re.++ (str.to_re ".") ((_ re.loop 1 2) (re.range "0" "9")))))) (str.to_re "\u{a}")))))
(assert (not (str.in_re X (re.++ (str.to_re "/") (re.union (str.to_re "i") (str.to_re "m") (str.to_re "s") (str.to_re "x") (str.to_re "e") (str.to_re "A") (str.to_re "D") (str.to_re "S") (str.to_re "U") (str.to_re "X") (str.to_re "u")) (re.* (re.union (str.to_re "i") (str.to_re "m") (str.to_re "s") (str.to_re "x") (str.to_re "e") (str.to_re "A") (str.to_re "D") (str.to_re "S") (str.to_re "U") (str.to_re "X") (str.to_re "u"))) (str.to_re "/\u{a}")))))
(check-sat)

(exit)
